
27 19 21 27 21 12 21 27 27 27 4 19 13 13 19 11 13 8 27 0 27 21 5 0 5 27 27 19 4 21 19 19 4 21 27 12 8 8 27 21 11 8 12 4 8 19 13 21 19 8 0 21 21 21 8 12 11 8 27 11 4 0 11 8 13 11 5 19 19 12 27 12 19 8 5 5 8 5 8 21 13 0 8 12 4 13 19 5 27 11 11 19 11 11 0 13 11 12 0 11 0 21 12 11 4 0 4 27 27 13 19 4 27 12 12 8 11 11 0 8 8 11 0 19 4 21 21 11 19 0 11 21 11 8 5 8 13 13 11 0 12 27 11 11 11 5 21 21 27 12 0 0 5 0 8 11 5 21 13 13 13 27 13 0 5 27 5 4 13 21 5 8 19 8 4 0 0 8 4 13 5 21 21 19 12 8 11 13 0 21 21 21 19 4 11 12 11 21 8 19 
